proyfinal/src/viki/013/experimentInOfficeAgust.take6.output/e645a97d-cf89-4884-b6bc-f624ea9a9796.als.dat
{'cnf.clauses': '118081',
 'cnf.totvars': '69608',
 'conflict literals': '7',
 'conflicts': '6',
 'decisions': '657',
 'memused.mb': '16.66',
 'outcome': 'UNSAT',
 'propagations': '21748',
 'restarts': '1',
 'solver.msecs': 33,
 'task.msecs': 92}
