proyfinal/src/viki/013/experimentInOfficeAgust.take6.output/e645a97d-cf89-4884-b6bc-f624ea9a9796.als.out
Reading from standard input... Use '--help' for help.
============================[ Problem Statistics ]=============================
|                                                                             |
|  Number of variables:         69608                                         |
|  Number of clauses:          118081                                         |
|  Parse time:                   0.03 s                                       |
|                                                                             |
============================[ Search Statistics ]==============================
| Conflicts |          ORIGINAL         |          LEARNT          | Progress |
|           |    Vars  Clauses Literals |    Limit  Clauses Lit/Cl |          |
===============================================================================
===============================================================================
restarts              : 1
conflicts             : 6              (177 /sec)
decisions             : 657            (0.00 % random) (19374 /sec)
propagations          : 21748          (641326 /sec)
conflict literals     : 7              (0.00 % deleted)
Memory used           : 16.66 MB
CPU time              : 0.033911 s

UNSATISFIABLE
